NAME
ROWS
 N  OBJ
 E  c1
 E  c2
 E  c3
 E  c4
 E  c5
 E  c6
 E  c7
 E  c8
 E  c9
 E  c10
 E  c11
 E  c12
 E  c13
 E  c14
 E  c15
 E  c16
 E  c17
 E  c18
 E  c19
 E  c20
 E  c21
 E  c22
 E  c23
 E  c24
 E  c25
 E  c26
 E  c27
 E  c28
 E  c29
 E  c30
 E  c31
 E  c32
 E  c33
 E  c34
 E  c35
 E  c36
 E  c37
 E  c38
 E  c39
 E  c40
 E  c41
 E  c42
 E  c43
 E  c44
 E  c45
 E  c46
 E  c47
 E  c48
 E  c49
 E  c50
 E  c51
 E  c52
 E  c53
 E  c54
 E  c55
 E  c56
 E  c57
 E  c58
 E  c59
 E  c60
 E  c61
 E  c62
 E  c63
 E  c64
 E  c65
 E  c66
 E  c67
 E  c68
 E  c69
 E  c70
 E  c71
 E  c72
 L  c1_1
 L  c2_1
 L  c3_1
 L  c4_1
 L  c5_1
 L  c6_1
 L  c7_1
 L  c8_1
 L  c9_1
 L  c10_1
 L  c11_1
 L  c12_1
 L  c13_1
 L  c14_1
 L  c15_1
 L  c16_1
 L  c17_1
 L  c18_1
 L  c19_1
 L  c20_1
 L  c21_1
 L  c22_1
 L  c23_1
 L  c24_1
 L  c25_1
 L  c26_1
 L  c27_1
 L  c28_1
 L  c29_1
 L  c30_1
 L  c31_1
 L  c32_1
 L  c33_1
 L  c34_1
 L  c35_1
 L  c36_1
 L  c37_1
 L  c38_1
 L  c39_1
 L  c40_1
 L  c41_1
COLUMNS
    0_va[5]   c32       4.7724793282813565
    0_va[5]   c40       -7.449267916773697
    0_va[5]   c1_1      -1
    0_va[5]   c9_1      1
    0_va[16]  c43       4.104359379111847
    0_va[16]  c65       -4.840774272153213
    0_va[16]  c12_1     -1
    0_va[16]  c34_1     1
    0_va[20]  c39       11.764705882352942
    0_va[20]  c59       3.98535828943083
    0_va[20]  c8_1      -1
    0_va[20]  c28_1     -1
    0_va[12]  c34       -7.142857142857142
    0_va[12]  c41       -3.1734252729654178
    0_va[12]  c43       -4.104359379111847
    0_va[12]  c70       -6.097275864326261
    0_va[12]  c72       3.9062500000000004
    0_va[12]  c3_1      1
    0_va[12]  c10_1     1
    0_va[12]  c12_1     1
    0_va[12]  c39_1     1
    0_va[12]  c41_1     -1
    0_va[24]  c44       2.989238740534077
    0_va[24]  c51       3.954402863076039
    0_va[24]  c60       -2.2876220537050544
    0_va[24]  c13_1     -1
    0_va[24]  c20_1     -1
    0_va[24]  c29_1     1
    0_va[28]  c47       15.463571542897856
    0_va[28]  c49       -2.525252525252525
    0_va[28]  c61       4.540814658476247
    0_va[28]  c16_1     -1
    0_va[28]  c18_1     1
    0_va[28]  c30_1     -1
    0_va[8]   c61       -4.540814658476247
    0_va[8]   c68       22.0125786163522
    0_va[8]   c30_1     1
    0_va[8]   c37_1     -1
    0_va[17]  c65       4.840774272153213
    0_va[17]  c69       10.317447719844054
    0_va[17]  c34_1     -1
    0_va[17]  c38_1     -1
    0_va[30]  c56       1.7233585608492323
    0_va[30]  c71       1.2939714947977172
    0_va[30]  c25_1     -1
    0_va[30]  c40_1     -1
    0_va[1]   c1        1
    0_va[1]   c50       -15.646726840803398
    0_va[1]   c66       -5.631674830095234
    0_va[1]   c19_1     1
    0_va[1]   c35_1     1
    0_va[23]  c37       3.9760648767813556
    0_va[23]  c44       -2.989238740534077
    0_va[23]  c6_1      -1
    0_va[23]  c13_1     1
    0_va[22]  c38       5.4007703033294545
    0_va[22]  c51       -3.954402863076039
    0_va[22]  c57       34.127718648773715
    0_va[22]  c7_1      -1
    0_va[22]  c20_1     1
    0_va[22]  c26_1     -1
    0_va[19]  c39       -11.764705882352942
    0_va[19]  c42       6.21875879927897
    0_va[19]  c8_1      1
    0_va[19]  c11_1     -1
    0_va[6]   c36       -1.7985611510791364
    0_va[6]   c46       5.116477495334806
    0_va[6]   c47       -15.463571542897856
    0_va[6]   c48       -4.8076923076923075
    0_va[6]   c52       -11.02611441072814
    0_va[6]   c58       22.311203565481225
    0_va[6]   c68       -22.0125786163522
    0_va[6]   c5_1      1
    0_va[6]   c15_1     -1
    0_va[6]   c16_1     1
    0_va[6]   c17_1     1
    0_va[6]   c21_1     1
    0_va[6]   c27_1     -1
    0_va[6]   c37_1     1
    0_va[11]  c64       4.8076923076923075
    0_va[11]  c33_1     -1
    0_va[9]   c48       4.8076923076923075
    0_va[9]   c54       -9.090909090909092
    0_va[9]   c64       -4.8076923076923075
    0_va[9]   c17_1     -1
    0_va[9]   c23_1     1
    0_va[9]   c33_1     1
    0_va[14]  c35       -2.2508740593696497
    0_va[14]  c41       3.1734252729654178
    0_va[14]  c4_1      1
    0_va[14]  c10_1     -1
    0_va[3]   c63       -23.530872629062802
    0_va[3]   c66       5.631674830095234
    0_va[3]   c32_1     1
    0_va[3]   c35_1     -1
    0_va[29]  c45       1.881005840357816
    0_va[29]  c56       -1.7233585608492323
    0_va[29]  c14_1     -1
    0_va[29]  c25_1     1
    0_va[7]   c40       7.449267916773697
    0_va[7]   c52       11.02611441072814
    0_va[7]   c9_1      -1
    0_va[7]   c21_1     -1
    0_va[25]  c33       -3.7602126619170635
    0_va[25]  c60       2.2876220537050544
    0_va[25]  c62       -1.8171440463475022
    0_va[25]  c2_1      1
    0_va[25]  c29_1     -1
    0_va[25]  c31_1     1
    0_va[4]   c55       5.1973792282565086
    0_va[4]   c58       -22.311203565481225
    0_va[4]   c63       23.530872629062802
    0_va[4]   c72       -3.9062500000000004
    0_va[4]   c24_1     -1
    0_va[4]   c27_1     1
    0_va[4]   c32_1     -1
    0_va[4]   c41_1     1
    0_va[13]  c34       7.142857142857142
    0_va[13]  c3_1      -1
    0_va[15]  c35       2.2508740593696497
    0_va[15]  c37       -3.9760648767813556
    0_va[15]  c53       -3.6874189316306962
    0_va[15]  c70       6.097275864326261
    0_va[15]  c4_1      -1
    0_va[15]  c6_1      1
    0_va[15]  c22_1     1
    0_va[15]  c39_1     -1
    0_va[2]   c32       -4.7724793282813565
    0_va[2]   c46       -5.116477495334806
    0_va[2]   c50       15.646726840803398
    0_va[2]   c55       -5.1973792282565086
    0_va[2]   c1_1      1
    0_va[2]   c15_1     1
    0_va[2]   c19_1     -1
    0_va[2]   c24_1     1
    0_va[27]  c33       3.7602126619170635
    0_va[27]  c45       -1.881005840357816
    0_va[27]  c49       2.525252525252525
    0_va[27]  c71       -1.2939714947977172
    0_va[27]  c2_1      -1
    0_va[27]  c14_1     1
    0_va[27]  c18_1     -1
    0_va[27]  c40_1     1
    0_va[21]  c57       -34.127718648773715
    0_va[21]  c67       10.980714112929828
    0_va[21]  c26_1     1
    0_va[21]  c36_1     -1
    0_va[26]  c62       1.8171440463475022
    0_va[26]  c31_1     -1
    0_va[10]  c36       1.7985611510791364
    0_va[10]  c38       -5.4007703033294545
    0_va[10]  c54       9.090909090909092
    0_va[10]  c59       -3.98535828943083
    0_va[10]  c67       -10.980714112929828
    0_va[10]  c69       -10.317447719844054
    0_va[10]  c5_1      -1
    0_va[10]  c7_1      1
    0_va[10]  c23_1     -1
    0_va[10]  c28_1     1
    0_va[10]  c36_1     1
    0_va[10]  c38_1     1
    0_va[18]  c42       -6.21875879927897
    0_va[18]  c53       3.6874189316306962
    0_va[18]  c11_1     1
    0_va[18]  c22_1     -1
    0_pg[5]   c16       -1
    0_pg[4]   c8        -1
    0_pg[6]   c24       -1
    0_pg[2]   c26       -1
    0_pg[2]   OBJ       5218.2254
    0_pg[3]   c2        -1
    0_pg[1]   c11       -1
    0_pg[1]   OBJ       1842.1527999999998
    0_p[(5,_2,_5)] c2   -1
    0_p[(5,_2,_5)] c26  1
    0_p[(5,_2,_5)] c32  1
    0_p[(35,_25,_27)] c22 1
    0_p[(35,_25,_27)] c27 -1
    0_p[(35,_25,_27)] c33 1
    0_p[(16,_12,_13)] c5 1
    0_p[(16,_12,_13)] c24 -1
    0_p[(16,_12,_13)] c34 1
    0_p[(20,_14,_15)] c18 1
    0_p[(20,_14,_15)] c25 -1
    0_p[(20,_14,_15)] c35 1
    0_p[(12,_6,_10)] c15 1
    0_p[(12,_6,_10)] c30 -1
    0_p[(12,_6,_10)] c36 1
    0_p[(30,_15,_23)] c12 -1
    0_p[(30,_15,_23)] c25 1
    0_p[(30,_15,_23)] c37 1
    0_p[(28,_10,_22)] c13 -1
    0_p[(28,_10,_22)] c30 1
    0_p[(28,_10,_22)] c38 1
    0_p[(24,_19,_20)] c4 -1
    0_p[(24,_19,_20)] c14 1
    0_p[(24,_19,_20)] c39 1
    0_p[(8,_5,_7)] c2   1
    0_p[(8,_5,_7)] c21  -1
    0_p[(8,_5,_7)] c40  1
    0_p[(17,_12,_14)] c5 1
    0_p[(17,_12,_14)] c18 -1
    0_p[(17,_12,_14)] c41 1
    0_p[(23,_18,_19)] c14 -1
    0_p[(23,_18,_19)] c31 1
    0_p[(23,_18,_19)] c42 1
    0_p[(19,_12,_16)] c3 -1
    0_p[(19,_12,_16)] c5 1
    0_p[(19,_12,_16)] c43 1
    0_p[(32,_23,_24)] c6 -1
    0_p[(32,_23,_24)] c12 1
    0_p[(32,_23,_24)] c44 1
    0_p[(37,_27,_29)] c20 -1
    0_p[(37,_27,_29)] c27 1
    0_p[(37,_27,_29)] c45 1
    0_p[(6,_2,_6)] c15  -1
    0_p[(6,_2,_6)] c26  1
    0_p[(6,_2,_6)] c46  1
    0_p[(41,_6,_28)] c7 -1
    0_p[(41,_6,_28)] c15 1
    0_p[(41,_6,_28)] c47 1
    0_p[(11,_6,_9)] c15 1
    0_p[(11,_6,_9)] c17 -1
    0_p[(11,_6,_9)] c48 1
    0_p[(36,_28,_27)] c7 1
    0_p[(36,_28,_27)] c27 -1
    0_p[(36,_28,_27)] c49 1
    0_p[(1,_1,_2)] c11  1
    0_p[(1,_1,_2)] c26  -1
    0_p[(1,_1,_2)] c50  1
    0_p[(31,_22,_24)] c6 -1
    0_p[(31,_22,_24)] c13 1
    0_p[(31,_22,_24)] c51 1
    0_p[(9,_6,_7)] c15  1
    0_p[(9,_6,_7)] c21  -1
    0_p[(9,_6,_7)] c52  1
    0_p[(22,_15,_18)] c25 1
    0_p[(22,_15,_18)] c31 -1
    0_p[(22,_15,_18)] c53 1
    0_p[(14,_9,_10)] c17 1
    0_p[(14,_9,_10)] c30 -1
    0_p[(14,_9,_10)] c54 1
    0_p[(3,_2,_4)] c23  -1
    0_p[(3,_2,_4)] c26  1
    0_p[(3,_2,_4)] c55  1
    0_p[(39,_29,_30)] c10 -1
    0_p[(39,_29,_30)] c20 1
    0_p[(39,_29,_30)] c56 1
    0_p[(29,_21,_22)] c13 -1
    0_p[(29,_21,_22)] c28 1
    0_p[(29,_21,_22)] c57 1
    0_p[(7,_4,_6)] c15  -1
    0_p[(7,_4,_6)] c23  1
    0_p[(7,_4,_6)] c58  1
    0_p[(25,_10,_20)] c4 -1
    0_p[(25,_10,_20)] c30 1
    0_p[(25,_10,_20)] c59 1
    0_p[(33,_24,_25)] c6 1
    0_p[(33,_24,_25)] c22 -1
    0_p[(33,_24,_25)] c60 1
    0_p[(40,_8,_28)] c7 -1
    0_p[(40,_8,_28)] c8 1
    0_p[(40,_8,_28)] c61 1
    0_p[(34,_25,_26)] c22 1
    0_p[(34,_25,_26)] c29 -1
    0_p[(34,_25,_26)] c62 1
    0_p[(4,_3,_4)] c19  1
    0_p[(4,_3,_4)] c23  -1
    0_p[(4,_3,_4)] c63  1
    0_p[(13,_9,_11)] c16 -1
    0_p[(13,_9,_11)] c17 1
    0_p[(13,_9,_11)] c64 1
    0_p[(21,_16,_17)] c3 1
    0_p[(21,_16,_17)] c9 -1
    0_p[(21,_16,_17)] c65 1
    0_p[(2,_1,_3)] c11  1
    0_p[(2,_1,_3)] c19  -1
    0_p[(2,_1,_3)] c66  1
    0_p[(27,_10,_21)] c28 -1
    0_p[(27,_10,_21)] c30 1
    0_p[(27,_10,_21)] c67 1
    0_p[(10,_6,_8)] c8  -1
    0_p[(10,_6,_8)] c15 1
    0_p[(10,_6,_8)] c68 1
    0_p[(26,_10,_17)] c9 -1
    0_p[(26,_10,_17)] c30 1
    0_p[(26,_10,_17)] c69 1
    0_p[(18,_12,_15)] c5 1
    0_p[(18,_12,_15)] c25 -1
    0_p[(18,_12,_15)] c70 1
    0_p[(38,_27,_30)] c10 -1
    0_p[(38,_27,_30)] c27 1
    0_p[(38,_27,_30)] c71 1
    0_p[(15,_4,_12)] c5 -1
    0_p[(15,_4,_12)] c23 1
    0_p[(15,_4,_12)] c72 1
RHS
    rhs       c1        0
    rhs       c2        -0.9420000000000001
    rhs       c3        -0.035
    rhs       c4        -0.022000000000000002
    rhs       c5        -0.11199999999999999
    rhs       c6        -0.087
    rhs       c7        0
    rhs       c8        -0.3
    rhs       c9        -0.09
    rhs       c10       -0.106
    rhs       c11       0
    rhs       c12       -0.032
    rhs       c13       0
    rhs       c14       -0.095
    rhs       c15       0
    rhs       c16       0
    rhs       c17       0
    rhs       c18       -0.062
    rhs       c19       -0.024
    rhs       c20       -0.024
    rhs       c21       -0.228
    rhs       c22       0
    rhs       c23       -0.076
    rhs       c24       0
    rhs       c25       -0.08199999999999999
    rhs       c26       -0.217
    rhs       c27       0
    rhs       c28       -0.175
    rhs       c29       -0.035
    rhs       c30       -0.057999999999999996
    rhs       c31       -0.032
    rhs       c32       0
    rhs       c33       0
    rhs       c34       0
    rhs       c35       0
    rhs       c36       0
    rhs       c37       0
    rhs       c38       0
    rhs       c39       0
    rhs       c40       0
    rhs       c41       0
    rhs       c42       0
    rhs       c43       0
    rhs       c44       0
    rhs       c45       0
    rhs       c46       0
    rhs       c47       0
    rhs       c48       0
    rhs       c49       0
    rhs       c50       0
    rhs       c51       0
    rhs       c52       0
    rhs       c53       0
    rhs       c54       0
    rhs       c55       0
    rhs       c56       0
    rhs       c57       0
    rhs       c58       0
    rhs       c59       0
    rhs       c60       0
    rhs       c61       0
    rhs       c62       0
    rhs       c63       0
    rhs       c64       0
    rhs       c65       0
    rhs       c66       0
    rhs       c67       0
    rhs       c68       0
    rhs       c69       0
    rhs       c70       0
    rhs       c71       0
    rhs       c72       0
    rhs       c1_1      0.5235987755982988
    rhs       c2_1      0.5235987755982988
    rhs       c3_1      0.5235987755982988
    rhs       c4_1      0.5235987755982988
    rhs       c5_1      0.5235987755982988
    rhs       c6_1      0.5235987755982988
    rhs       c7_1      0.5235987755982988
    rhs       c8_1      0.5235987755982988
    rhs       c9_1      0.5235987755982988
    rhs       c10_1     0.5235987755982988
    rhs       c11_1     0.5235987755982988
    rhs       c12_1     0.5235987755982988
    rhs       c13_1     0.5235987755982988
    rhs       c14_1     0.5235987755982988
    rhs       c15_1     0.5235987755982988
    rhs       c16_1     0.5235987755982988
    rhs       c17_1     0.5235987755982988
    rhs       c18_1     0.5235987755982988
    rhs       c19_1     0.5235987755982988
    rhs       c20_1     0.5235987755982988
    rhs       c21_1     0.5235987755982988
    rhs       c22_1     0.5235987755982988
    rhs       c23_1     0.5235987755982988
    rhs       c24_1     0.5235987755982988
    rhs       c25_1     0.5235987755982988
    rhs       c26_1     0.5235987755982988
    rhs       c27_1     0.5235987755982988
    rhs       c28_1     0.5235987755982988
    rhs       c29_1     0.5235987755982988
    rhs       c30_1     0.5235987755982988
    rhs       c31_1     0.5235987755982988
    rhs       c32_1     0.5235987755982988
    rhs       c33_1     0.5235987755982988
    rhs       c34_1     0.5235987755982988
    rhs       c35_1     0.5235987755982988
    rhs       c36_1     0.5235987755982988
    rhs       c37_1     0.5235987755982988
    rhs       c38_1     0.5235987755982988
    rhs       c39_1     0.5235987755982988
    rhs       c40_1     0.5235987755982988
    rhs       c41_1     0.5235987755982988
RANGES
    rhs       c1_1      1.0471975511965976
    rhs       c2_1      1.0471975511965976
    rhs       c3_1      1.0471975511965976
    rhs       c4_1      1.0471975511965976
    rhs       c5_1      1.0471975511965976
    rhs       c6_1      1.0471975511965976
    rhs       c7_1      1.0471975511965976
    rhs       c8_1      1.0471975511965976
    rhs       c9_1      1.0471975511965976
    rhs       c10_1     1.0471975511965976
    rhs       c11_1     1.0471975511965976
    rhs       c12_1     1.0471975511965976
    rhs       c13_1     1.0471975511965976
    rhs       c14_1     1.0471975511965976
    rhs       c15_1     1.0471975511965976
    rhs       c16_1     1.0471975511965976
    rhs       c17_1     1.0471975511965976
    rhs       c18_1     1.0471975511965976
    rhs       c19_1     1.0471975511965976
    rhs       c20_1     1.0471975511965976
    rhs       c21_1     1.0471975511965976
    rhs       c22_1     1.0471975511965976
    rhs       c23_1     1.0471975511965976
    rhs       c24_1     1.0471975511965976
    rhs       c25_1     1.0471975511965976
    rhs       c26_1     1.0471975511965976
    rhs       c27_1     1.0471975511965976
    rhs       c28_1     1.0471975511965976
    rhs       c29_1     1.0471975511965976
    rhs       c30_1     1.0471975511965976
    rhs       c31_1     1.0471975511965976
    rhs       c32_1     1.0471975511965976
    rhs       c33_1     1.0471975511965976
    rhs       c34_1     1.0471975511965976
    rhs       c35_1     1.0471975511965976
    rhs       c36_1     1.0471975511965976
    rhs       c37_1     1.0471975511965976
    rhs       c38_1     1.0471975511965976
    rhs       c39_1     1.0471975511965976
    rhs       c40_1     1.0471975511965976
    rhs       c41_1     1.0471975511965976
BOUNDS
 FR bounds    0_va[5]
 FR bounds    0_va[16]
 FR bounds    0_va[20]
 FR bounds    0_va[12]
 FR bounds    0_va[24]
 FR bounds    0_va[28]
 FR bounds    0_va[8]
 FR bounds    0_va[17]
 FR bounds    0_va[30]
 FR bounds    0_va[1]
 FR bounds    0_va[23]
 FR bounds    0_va[22]
 FR bounds    0_va[19]
 FR bounds    0_va[6]
 FR bounds    0_va[11]
 FR bounds    0_va[9]
 FR bounds    0_va[14]
 FR bounds    0_va[3]
 FR bounds    0_va[29]
 FR bounds    0_va[7]
 FR bounds    0_va[25]
 FR bounds    0_va[4]
 FR bounds    0_va[13]
 FR bounds    0_va[15]
 FR bounds    0_va[2]
 FR bounds    0_va[27]
 FR bounds    0_va[21]
 FR bounds    0_va[26]
 FR bounds    0_va[10]
 FR bounds    0_va[18]
 FX bounds    0_pg[5]   0
 FX bounds    0_pg[4]   0
 FX bounds    0_pg[6]   0
 LO bounds    0_pg[2]   0
 UP bounds    0_pg[2]   0.92
 FX bounds    0_pg[3]   0
 LO bounds    0_pg[1]   0
 UP bounds    0_pg[1]   2.71
 LO bounds    0_p[(5,_2,_5)] -1.44
 UP bounds    0_p[(5,_2,_5)] 1.44
 LO bounds    0_p[(35,_25,_27)] -0.28
 UP bounds    0_p[(35,_25,_27)] 0.28
 LO bounds    0_p[(16,_12,_13)] -2.1
 UP bounds    0_p[(16,_12,_13)] 2.1
 LO bounds    0_p[(20,_14,_15)] -0.2
 UP bounds    0_p[(20,_14,_15)] 0.2
 LO bounds    0_p[(12,_6,_10)] -0.53
 UP bounds    0_p[(12,_6,_10)] 0.53
 LO bounds    0_p[(30,_15,_23)] -0.29
 UP bounds    0_p[(30,_15,_23)] 0.29
 LO bounds    0_p[(28,_10,_22)] -0.29
 UP bounds    0_p[(28,_10,_22)] 0.29
 LO bounds    0_p[(24,_19,_20)] -0.29
 UP bounds    0_p[(24,_19,_20)] 0.29
 LO bounds    0_p[(8,_5,_7)] -1.27
 UP bounds    0_p[(8,_5,_7)] 1.27
 LO bounds    0_p[(17,_12,_14)] -0.29
 UP bounds    0_p[(17,_12,_14)] 0.29
 LO bounds    0_p[(23,_18,_19)] -0.29
 UP bounds    0_p[(23,_18,_19)] 0.29
 LO bounds    0_p[(19,_12,_16)] -0.3
 UP bounds    0_p[(19,_12,_16)] 0.3
 LO bounds    0_p[(32,_23,_24)] -0.29
 UP bounds    0_p[(32,_23,_24)] 0.29
 LO bounds    0_p[(37,_27,_29)] -0.28
 UP bounds    0_p[(37,_27,_29)] 0.28
 LO bounds    0_p[(6,_2,_6)] -1.39
 UP bounds    0_p[(6,_2,_6)] 1.39
 LO bounds    0_p[(41,_6,_28)] -1.49
 UP bounds    0_p[(41,_6,_28)] 1.49
 LO bounds    0_p[(11,_6,_9)] -1.42
 UP bounds    0_p[(11,_6,_9)] 1.42
 LO bounds    0_p[(36,_28,_27)] -0.75
 UP bounds    0_p[(36,_28,_27)] 0.75
 LO bounds    0_p[(1,_1,_2)] -1.38
 UP bounds    0_p[(1,_1,_2)] 1.38
 LO bounds    0_p[(31,_22,_24)] -0.26
 UP bounds    0_p[(31,_22,_24)] 0.26
 LO bounds    0_p[(9,_6,_7)] -1.4
 UP bounds    0_p[(9,_6,_7)] 1.4
 LO bounds    0_p[(22,_15,_18)] -0.29
 UP bounds    0_p[(22,_15,_18)] 0.29
 LO bounds    0_p[(14,_9,_10)] -2.67
 UP bounds    0_p[(14,_9,_10)] 2.67
 LO bounds    0_p[(3,_2,_4)] -1.39
 UP bounds    0_p[(3,_2,_4)] 1.39
 LO bounds    0_p[(39,_29,_30)] -0.28
 UP bounds    0_p[(39,_29,_30)] 0.28
 LO bounds    0_p[(29,_21,_22)] -0.29
 UP bounds    0_p[(29,_21,_22)] 0.29
 LO bounds    0_p[(7,_4,_6)] -1.48
 UP bounds    0_p[(7,_4,_6)] 1.48
 LO bounds    0_p[(25,_10,_20)] -0.3
 UP bounds    0_p[(25,_10,_20)] 0.3
 LO bounds    0_p[(33,_24,_25)] -0.27
 UP bounds    0_p[(33,_24,_25)] 0.27
 LO bounds    0_p[(40,_8,_28)] -1.4
 UP bounds    0_p[(40,_8,_28)] 1.4
 LO bounds    0_p[(34,_25,_26)] -0.25
 UP bounds    0_p[(34,_25,_26)] 0.25
 LO bounds    0_p[(4,_3,_4)] -1.35
 UP bounds    0_p[(4,_3,_4)] 1.35
 LO bounds    0_p[(13,_9,_11)] -1.42
 UP bounds    0_p[(13,_9,_11)] 1.42
 LO bounds    0_p[(21,_16,_17)] -0.38
 UP bounds    0_p[(21,_16,_17)] 0.38
 LO bounds    0_p[(2,_1,_3)] -1.52
 UP bounds    0_p[(2,_1,_3)] 1.52
 LO bounds    0_p[(27,_10,_21)] -0.3
 UP bounds    0_p[(27,_10,_21)] 0.3
 LO bounds    0_p[(10,_6,_8)] -1.48
 UP bounds    0_p[(10,_6,_8)] 1.48
 LO bounds    0_p[(26,_10,_17)] -0.33
 UP bounds    0_p[(26,_10,_17)] 0.33
 LO bounds    0_p[(18,_12,_15)] -0.29
 UP bounds    0_p[(18,_12,_15)] 0.29
 LO bounds    0_p[(38,_27,_30)] -0.28
 UP bounds    0_p[(38,_27,_30)] 0.28
 LO bounds    0_p[(15,_4,_12)] -1.15
 UP bounds    0_p[(15,_4,_12)] 1.15
ENDATA
